
;this file is automatically generated: Fri Oct 30 17:04:06 CST 2020

;declarations generated

(declare-fun oclExcludes ( Int Int) Bool)
(declare-fun class8_Class8IntAttr4 ( Int) Int)
(declare-fun class8_Class8IntAttr3 ( Int) Int)
(declare-fun Cardinality ( Int) Int)
(declare-fun type_f12efe30_d001_48e7_a418_da9e444ebc8b_Class10 ( Int) Bool)
(declare-fun type_f12efe30_d001_48e7_a418_da9e444ebc8b_Class13 ( Int) Bool)
(declare-fun type_f12efe30_d001_48e7_a418_da9e444ebc8b_Class14 ( Int) Bool)
(declare-fun type_f12efe30_d001_48e7_a418_da9e444ebc8b_Class11 ( Int) Bool)
(declare-fun type_f12efe30_d001_48e7_a418_da9e444ebc8b_Class12 ( Int) Bool)
(declare-fun type_f12efe30_d001_48e7_a418_da9e444ebc8b_Class17 ( Int) Bool)
(declare-fun type_f12efe30_d001_48e7_a418_da9e444ebc8b_Class18 ( Int) Bool)
(declare-fun type_f12efe30_d001_48e7_a418_da9e444ebc8b_Class15 ( Int) Bool)
(declare-fun type_f12efe30_d001_48e7_a418_da9e444ebc8b_Class16 ( Int) Bool)
(declare-fun type_f12efe30_d001_48e7_a418_da9e444ebc8b_Class19 ( Int) Bool)
(declare-fun type_f12efe30_d001_48e7_a418_da9e444ebc8b_Class20 ( Int) Bool)
(declare-fun type_f12efe30_d001_48e7_a418_da9e444ebc8b_Class21 ( Int) Bool)
(declare-fun type_f12efe30_d001_48e7_a418_da9e444ebc8b_Class24 ( Int) Bool)
(declare-fun type_f12efe30_d001_48e7_a418_da9e444ebc8b_Class25 ( Int) Bool)
(declare-fun type_f12efe30_d001_48e7_a418_da9e444ebc8b_Class22 ( Int) Bool)
(declare-fun type_f12efe30_d001_48e7_a418_da9e444ebc8b_Class23 ( Int) Bool)
(declare-fun type_f12efe30_d001_48e7_a418_da9e444ebc8b_Class28 ( Int) Bool)
(declare-fun type_f12efe30_d001_48e7_a418_da9e444ebc8b_Class29 ( Int) Bool)
(declare-fun type_f12efe30_d001_48e7_a418_da9e444ebc8b_Class26 ( Int) Bool)
(declare-fun type_f12efe30_d001_48e7_a418_da9e444ebc8b_Class27 ( Int) Bool)
(declare-fun obj_6a2101c1_da8f_47d2_bb9d_ef0813e1dc3e ( Int) Int)
(declare-fun type_f12efe30_d001_48e7_a418_da9e444ebc8b_Class50 ( Int) Bool)
(declare-fun type_f12efe30_d001_48e7_a418_da9e444ebc8b_Class53 ( Int) Bool)
(declare-fun type_f12efe30_d001_48e7_a418_da9e444ebc8b_Class54 ( Int) Bool)
(declare-fun type_f12efe30_d001_48e7_a418_da9e444ebc8b_Class51 ( Int) Bool)
(declare-fun type_f12efe30_d001_48e7_a418_da9e444ebc8b_Class52 ( Int) Bool)
(declare-fun type_f12efe30_d001_48e7_a418_da9e444ebc8b_Class55 ( Int) Bool)
(declare-fun type_f12efe30_d001_48e7_a418_da9e444ebc8b_Class31 ( Int) Bool)
(declare-fun type_f12efe30_d001_48e7_a418_da9e444ebc8b_Class32 ( Int) Bool)
(declare-fun type_f12efe30_d001_48e7_a418_da9e444ebc8b_Class30 ( Int) Bool)
(declare-fun type_f12efe30_d001_48e7_a418_da9e444ebc8b_Class35 ( Int) Bool)
(declare-fun type_f12efe30_d001_48e7_a418_da9e444ebc8b_Class36 ( Int) Bool)
(declare-fun type_f12efe30_d001_48e7_a418_da9e444ebc8b_Class33 ( Int) Bool)
(declare-fun type_f12efe30_d001_48e7_a418_da9e444ebc8b_Class34 ( Int) Bool)
(declare-fun type_f12efe30_d001_48e7_a418_da9e444ebc8b_Class39 ( Int) Bool)
(declare-fun type_f12efe30_d001_48e7_a418_da9e444ebc8b_Class37 ( Int) Bool)
(declare-fun type_f12efe30_d001_48e7_a418_da9e444ebc8b_Class38 ( Int) Bool)
(declare-fun type_f12efe30_d001_48e7_a418_da9e444ebc8b_Class42 ( Int) Bool)
(declare-fun type_f12efe30_d001_48e7_a418_da9e444ebc8b_Class43 ( Int) Bool)
(declare-fun type_f12efe30_d001_48e7_a418_da9e444ebc8b_Class40 ( Int) Bool)
(declare-fun type_f12efe30_d001_48e7_a418_da9e444ebc8b_Class41 ( Int) Bool)
(declare-fun type_f12efe30_d001_48e7_a418_da9e444ebc8b_Class46 ( Int) Bool)
(declare-fun type_f12efe30_d001_48e7_a418_da9e444ebc8b_Class47 ( Int) Bool)
(declare-fun type_f12efe30_d001_48e7_a418_da9e444ebc8b_Class44 ( Int) Bool)
(declare-fun type_f12efe30_d001_48e7_a418_da9e444ebc8b_Class45 ( Int) Bool)
(declare-fun type_f12efe30_d001_48e7_a418_da9e444ebc8b_Class48 ( Int) Bool)
(declare-fun type_f12efe30_d001_48e7_a418_da9e444ebc8b_Class49 ( Int) Bool)
(declare-fun oclSelect ( Int Bool) Int)
(declare-fun type_f12efe30_d001_48e7_a418_da9e444ebc8b_Class3 ( Int) Bool)
(declare-fun type_f12efe30_d001_48e7_a418_da9e444ebc8b_Class2 ( Int) Bool)
(declare-fun type_f12efe30_d001_48e7_a418_da9e444ebc8b_Class1 ( Int) Bool)
(declare-fun type_f12efe30_d001_48e7_a418_da9e444ebc8b_Class0 ( Int) Bool)
(declare-fun type_f12efe30_d001_48e7_a418_da9e444ebc8b_Class9 ( Int) Bool)
(declare-fun type_f12efe30_d001_48e7_a418_da9e444ebc8b_Class8 ( Int) Bool)
(declare-fun type_f12efe30_d001_48e7_a418_da9e444ebc8b_Class7 ( Int) Bool)
(declare-fun type_f12efe30_d001_48e7_a418_da9e444ebc8b_Class6 ( Int) Bool)
(declare-fun type_f12efe30_d001_48e7_a418_da9e444ebc8b_Class5 ( Int) Bool)
(declare-fun Enum0 ( Int) Int)
(declare-fun type_f12efe30_d001_48e7_a418_da9e444ebc8b_Class4 ( Int) Bool)
(declare-fun Enum1 ( Int) Int)
(declare-fun Enum2 ( Int) Int)
(declare-fun container_ ( Int) Int)
(declare-fun oclIncludes ( Int Int) Bool)
(declare-fun ObjAt ( Int Int) Int)

;formula(s) generated
(assert (! (forall ((c8_2 Int)(c8_1 Int)) (=> (and (and ( type_f12efe30_d001_48e7_a418_da9e444ebc8b_Class8 c8_1 )  ( type_f12efe30_d001_48e7_a418_da9e444ebc8b_Class39 c8_1 ) ) (and ( type_f12efe30_d001_48e7_a418_da9e444ebc8b_Class8 c8_2 )  ( type_f12efe30_d001_48e7_a418_da9e444ebc8b_Class39 c8_2 ) )) (= ( class8_Class8IntAttr4 ( obj_6a2101c1_da8f_47d2_bb9d_ef0813e1dc3e c8_1 )  )  ( class8_Class8IntAttr3 ( obj_6a2101c1_da8f_47d2_bb9d_ef0813e1dc3e c8_2 )  ) ))):named l0))
(assert (! (exists ((c1 Int)) (and (and ( type_f12efe30_d001_48e7_a418_da9e444ebc8b_Class8 c1 )  ( type_f12efe30_d001_48e7_a418_da9e444ebc8b_Class39 c1 ) ) (<= ( class8_Class8IntAttr4 ( obj_6a2101c1_da8f_47d2_bb9d_ef0813e1dc3e c1 )  )  18))):named l1))
(assert (! (exists ((c1 Int)) (and (and ( type_f12efe30_d001_48e7_a418_da9e444ebc8b_Class8 c1 )  ( type_f12efe30_d001_48e7_a418_da9e444ebc8b_Class39 c1 ) ) (> ( class8_Class8IntAttr4 ( obj_6a2101c1_da8f_47d2_bb9d_ef0813e1dc3e c1 )  )  1))):named l2))
(assert (! (forall ((c8_2 Int)(c8_1 Int)) (=> (and (and ( type_f12efe30_d001_48e7_a418_da9e444ebc8b_Class8 c8_1 )  ( type_f12efe30_d001_48e7_a418_da9e444ebc8b_Class39 c8_1 ) ) (and ( type_f12efe30_d001_48e7_a418_da9e444ebc8b_Class8 c8_2 )  ( type_f12efe30_d001_48e7_a418_da9e444ebc8b_Class39 c8_2 ) )) (<= ( class8_Class8IntAttr3 ( obj_6a2101c1_da8f_47d2_bb9d_ef0813e1dc3e c8_1 )  )  ( class8_Class8IntAttr4 ( obj_6a2101c1_da8f_47d2_bb9d_ef0813e1dc3e c8_2 )  ) ))):named l3))
(assert (! (exists ((o Int)) ( type_f12efe30_d001_48e7_a418_da9e444ebc8b_Class0 ( obj_6a2101c1_da8f_47d2_bb9d_ef0813e1dc3e o )  ) ):named c0))
(assert (! (exists ((o Int)) (and (and (and (and (and ( type_f12efe30_d001_48e7_a418_da9e444ebc8b_Class1 ( obj_6a2101c1_da8f_47d2_bb9d_ef0813e1dc3e o )  )  ( type_f12efe30_d001_48e7_a418_da9e444ebc8b_Class45 ( obj_6a2101c1_da8f_47d2_bb9d_ef0813e1dc3e o )  ) ) ( type_f12efe30_d001_48e7_a418_da9e444ebc8b_Class12 ( obj_6a2101c1_da8f_47d2_bb9d_ef0813e1dc3e o )  ) ) ( type_f12efe30_d001_48e7_a418_da9e444ebc8b_Class33 ( obj_6a2101c1_da8f_47d2_bb9d_ef0813e1dc3e o )  ) ) ( type_f12efe30_d001_48e7_a418_da9e444ebc8b_Class22 ( obj_6a2101c1_da8f_47d2_bb9d_ef0813e1dc3e o )  ) ) ( type_f12efe30_d001_48e7_a418_da9e444ebc8b_Class39 ( obj_6a2101c1_da8f_47d2_bb9d_ef0813e1dc3e o )  ) )):named c1))
(assert (! (exists ((o Int)) (and (and (and (and (and (and (and (and (and ( type_f12efe30_d001_48e7_a418_da9e444ebc8b_Class10 ( obj_6a2101c1_da8f_47d2_bb9d_ef0813e1dc3e o )  )  ( type_f12efe30_d001_48e7_a418_da9e444ebc8b_Class45 ( obj_6a2101c1_da8f_47d2_bb9d_ef0813e1dc3e o )  ) ) ( type_f12efe30_d001_48e7_a418_da9e444ebc8b_Class12 ( obj_6a2101c1_da8f_47d2_bb9d_ef0813e1dc3e o )  ) ) ( type_f12efe30_d001_48e7_a418_da9e444ebc8b_Class55 ( obj_6a2101c1_da8f_47d2_bb9d_ef0813e1dc3e o )  ) ) ( type_f12efe30_d001_48e7_a418_da9e444ebc8b_Class33 ( obj_6a2101c1_da8f_47d2_bb9d_ef0813e1dc3e o )  ) ) ( type_f12efe30_d001_48e7_a418_da9e444ebc8b_Class22 ( obj_6a2101c1_da8f_47d2_bb9d_ef0813e1dc3e o )  ) ) ( type_f12efe30_d001_48e7_a418_da9e444ebc8b_Class29 ( obj_6a2101c1_da8f_47d2_bb9d_ef0813e1dc3e o )  ) ) ( type_f12efe30_d001_48e7_a418_da9e444ebc8b_Class39 ( obj_6a2101c1_da8f_47d2_bb9d_ef0813e1dc3e o )  ) ) ( type_f12efe30_d001_48e7_a418_da9e444ebc8b_Class50 ( obj_6a2101c1_da8f_47d2_bb9d_ef0813e1dc3e o )  ) ) ( type_f12efe30_d001_48e7_a418_da9e444ebc8b_Class41 ( obj_6a2101c1_da8f_47d2_bb9d_ef0813e1dc3e o )  ) )):named c2))
(assert (! (exists ((o Int)) ( type_f12efe30_d001_48e7_a418_da9e444ebc8b_Class11 ( obj_6a2101c1_da8f_47d2_bb9d_ef0813e1dc3e o )  ) ):named c3))
(assert (! (exists ((o Int)) (and (and (and ( type_f12efe30_d001_48e7_a418_da9e444ebc8b_Class12 ( obj_6a2101c1_da8f_47d2_bb9d_ef0813e1dc3e o )  )  ( type_f12efe30_d001_48e7_a418_da9e444ebc8b_Class33 ( obj_6a2101c1_da8f_47d2_bb9d_ef0813e1dc3e o )  ) ) ( type_f12efe30_d001_48e7_a418_da9e444ebc8b_Class22 ( obj_6a2101c1_da8f_47d2_bb9d_ef0813e1dc3e o )  ) ) ( type_f12efe30_d001_48e7_a418_da9e444ebc8b_Class39 ( obj_6a2101c1_da8f_47d2_bb9d_ef0813e1dc3e o )  ) )):named c4))
(assert (! (exists ((o Int)) (and (and (and (and (and (and (and (and (and ( type_f12efe30_d001_48e7_a418_da9e444ebc8b_Class13 ( obj_6a2101c1_da8f_47d2_bb9d_ef0813e1dc3e o )  )  ( type_f12efe30_d001_48e7_a418_da9e444ebc8b_Class45 ( obj_6a2101c1_da8f_47d2_bb9d_ef0813e1dc3e o )  ) ) ( type_f12efe30_d001_48e7_a418_da9e444ebc8b_Class12 ( obj_6a2101c1_da8f_47d2_bb9d_ef0813e1dc3e o )  ) ) ( type_f12efe30_d001_48e7_a418_da9e444ebc8b_Class55 ( obj_6a2101c1_da8f_47d2_bb9d_ef0813e1dc3e o )  ) ) ( type_f12efe30_d001_48e7_a418_da9e444ebc8b_Class33 ( obj_6a2101c1_da8f_47d2_bb9d_ef0813e1dc3e o )  ) ) ( type_f12efe30_d001_48e7_a418_da9e444ebc8b_Class22 ( obj_6a2101c1_da8f_47d2_bb9d_ef0813e1dc3e o )  ) ) ( type_f12efe30_d001_48e7_a418_da9e444ebc8b_Class29 ( obj_6a2101c1_da8f_47d2_bb9d_ef0813e1dc3e o )  ) ) ( type_f12efe30_d001_48e7_a418_da9e444ebc8b_Class39 ( obj_6a2101c1_da8f_47d2_bb9d_ef0813e1dc3e o )  ) ) ( type_f12efe30_d001_48e7_a418_da9e444ebc8b_Class50 ( obj_6a2101c1_da8f_47d2_bb9d_ef0813e1dc3e o )  ) ) ( type_f12efe30_d001_48e7_a418_da9e444ebc8b_Class41 ( obj_6a2101c1_da8f_47d2_bb9d_ef0813e1dc3e o )  ) )):named c5))
(assert (! (exists ((o Int)) (and (and (and (and (and (and (and (and (and ( type_f12efe30_d001_48e7_a418_da9e444ebc8b_Class14 ( obj_6a2101c1_da8f_47d2_bb9d_ef0813e1dc3e o )  )  ( type_f12efe30_d001_48e7_a418_da9e444ebc8b_Class45 ( obj_6a2101c1_da8f_47d2_bb9d_ef0813e1dc3e o )  ) ) ( type_f12efe30_d001_48e7_a418_da9e444ebc8b_Class12 ( obj_6a2101c1_da8f_47d2_bb9d_ef0813e1dc3e o )  ) ) ( type_f12efe30_d001_48e7_a418_da9e444ebc8b_Class55 ( obj_6a2101c1_da8f_47d2_bb9d_ef0813e1dc3e o )  ) ) ( type_f12efe30_d001_48e7_a418_da9e444ebc8b_Class33 ( obj_6a2101c1_da8f_47d2_bb9d_ef0813e1dc3e o )  ) ) ( type_f12efe30_d001_48e7_a418_da9e444ebc8b_Class22 ( obj_6a2101c1_da8f_47d2_bb9d_ef0813e1dc3e o )  ) ) ( type_f12efe30_d001_48e7_a418_da9e444ebc8b_Class29 ( obj_6a2101c1_da8f_47d2_bb9d_ef0813e1dc3e o )  ) ) ( type_f12efe30_d001_48e7_a418_da9e444ebc8b_Class39 ( obj_6a2101c1_da8f_47d2_bb9d_ef0813e1dc3e o )  ) ) ( type_f12efe30_d001_48e7_a418_da9e444ebc8b_Class50 ( obj_6a2101c1_da8f_47d2_bb9d_ef0813e1dc3e o )  ) ) ( type_f12efe30_d001_48e7_a418_da9e444ebc8b_Class41 ( obj_6a2101c1_da8f_47d2_bb9d_ef0813e1dc3e o )  ) )):named c6))
(assert (! (exists ((o Int)) ( type_f12efe30_d001_48e7_a418_da9e444ebc8b_Class15 ( obj_6a2101c1_da8f_47d2_bb9d_ef0813e1dc3e o )  ) ):named c7))
(assert (! (exists ((o Int)) (and (and (and (and (and ( type_f12efe30_d001_48e7_a418_da9e444ebc8b_Class16 ( obj_6a2101c1_da8f_47d2_bb9d_ef0813e1dc3e o )  )  ( type_f12efe30_d001_48e7_a418_da9e444ebc8b_Class45 ( obj_6a2101c1_da8f_47d2_bb9d_ef0813e1dc3e o )  ) ) ( type_f12efe30_d001_48e7_a418_da9e444ebc8b_Class12 ( obj_6a2101c1_da8f_47d2_bb9d_ef0813e1dc3e o )  ) ) ( type_f12efe30_d001_48e7_a418_da9e444ebc8b_Class33 ( obj_6a2101c1_da8f_47d2_bb9d_ef0813e1dc3e o )  ) ) ( type_f12efe30_d001_48e7_a418_da9e444ebc8b_Class22 ( obj_6a2101c1_da8f_47d2_bb9d_ef0813e1dc3e o )  ) ) ( type_f12efe30_d001_48e7_a418_da9e444ebc8b_Class39 ( obj_6a2101c1_da8f_47d2_bb9d_ef0813e1dc3e o )  ) )):named c8))
(assert (! (exists ((o Int)) ( type_f12efe30_d001_48e7_a418_da9e444ebc8b_Class17 ( obj_6a2101c1_da8f_47d2_bb9d_ef0813e1dc3e o )  ) ):named c9))
(assert (! (exists ((o Int)) (and (and (and ( type_f12efe30_d001_48e7_a418_da9e444ebc8b_Class18 ( obj_6a2101c1_da8f_47d2_bb9d_ef0813e1dc3e o )  )  ( type_f12efe30_d001_48e7_a418_da9e444ebc8b_Class25 ( obj_6a2101c1_da8f_47d2_bb9d_ef0813e1dc3e o )  ) ) ( type_f12efe30_d001_48e7_a418_da9e444ebc8b_Class24 ( obj_6a2101c1_da8f_47d2_bb9d_ef0813e1dc3e o )  ) ) ( type_f12efe30_d001_48e7_a418_da9e444ebc8b_Class39 ( obj_6a2101c1_da8f_47d2_bb9d_ef0813e1dc3e o )  ) )):named c10))
(assert (! (exists ((o Int)) (and (and (and (and (and (and (and (and (and ( type_f12efe30_d001_48e7_a418_da9e444ebc8b_Class19 ( obj_6a2101c1_da8f_47d2_bb9d_ef0813e1dc3e o )  )  ( type_f12efe30_d001_48e7_a418_da9e444ebc8b_Class45 ( obj_6a2101c1_da8f_47d2_bb9d_ef0813e1dc3e o )  ) ) ( type_f12efe30_d001_48e7_a418_da9e444ebc8b_Class12 ( obj_6a2101c1_da8f_47d2_bb9d_ef0813e1dc3e o )  ) ) ( type_f12efe30_d001_48e7_a418_da9e444ebc8b_Class55 ( obj_6a2101c1_da8f_47d2_bb9d_ef0813e1dc3e o )  ) ) ( type_f12efe30_d001_48e7_a418_da9e444ebc8b_Class33 ( obj_6a2101c1_da8f_47d2_bb9d_ef0813e1dc3e o )  ) ) ( type_f12efe30_d001_48e7_a418_da9e444ebc8b_Class22 ( obj_6a2101c1_da8f_47d2_bb9d_ef0813e1dc3e o )  ) ) ( type_f12efe30_d001_48e7_a418_da9e444ebc8b_Class29 ( obj_6a2101c1_da8f_47d2_bb9d_ef0813e1dc3e o )  ) ) ( type_f12efe30_d001_48e7_a418_da9e444ebc8b_Class39 ( obj_6a2101c1_da8f_47d2_bb9d_ef0813e1dc3e o )  ) ) ( type_f12efe30_d001_48e7_a418_da9e444ebc8b_Class50 ( obj_6a2101c1_da8f_47d2_bb9d_ef0813e1dc3e o )  ) ) ( type_f12efe30_d001_48e7_a418_da9e444ebc8b_Class41 ( obj_6a2101c1_da8f_47d2_bb9d_ef0813e1dc3e o )  ) )):named c11))
(assert (! (exists ((o Int)) ( type_f12efe30_d001_48e7_a418_da9e444ebc8b_Class2 ( obj_6a2101c1_da8f_47d2_bb9d_ef0813e1dc3e o )  ) ):named c12))
(assert (! (exists ((o Int)) ( type_f12efe30_d001_48e7_a418_da9e444ebc8b_Class20 ( obj_6a2101c1_da8f_47d2_bb9d_ef0813e1dc3e o )  ) ):named c13))
(assert (! (exists ((o Int)) (and (and (and (and (and (and (and (and (and ( type_f12efe30_d001_48e7_a418_da9e444ebc8b_Class21 ( obj_6a2101c1_da8f_47d2_bb9d_ef0813e1dc3e o )  )  ( type_f12efe30_d001_48e7_a418_da9e444ebc8b_Class45 ( obj_6a2101c1_da8f_47d2_bb9d_ef0813e1dc3e o )  ) ) ( type_f12efe30_d001_48e7_a418_da9e444ebc8b_Class12 ( obj_6a2101c1_da8f_47d2_bb9d_ef0813e1dc3e o )  ) ) ( type_f12efe30_d001_48e7_a418_da9e444ebc8b_Class33 ( obj_6a2101c1_da8f_47d2_bb9d_ef0813e1dc3e o )  ) ) ( type_f12efe30_d001_48e7_a418_da9e444ebc8b_Class22 ( obj_6a2101c1_da8f_47d2_bb9d_ef0813e1dc3e o )  ) ) ( type_f12efe30_d001_48e7_a418_da9e444ebc8b_Class16 ( obj_6a2101c1_da8f_47d2_bb9d_ef0813e1dc3e o )  ) ) ( type_f12efe30_d001_48e7_a418_da9e444ebc8b_Class29 ( obj_6a2101c1_da8f_47d2_bb9d_ef0813e1dc3e o )  ) ) ( type_f12efe30_d001_48e7_a418_da9e444ebc8b_Class39 ( obj_6a2101c1_da8f_47d2_bb9d_ef0813e1dc3e o )  ) ) ( type_f12efe30_d001_48e7_a418_da9e444ebc8b_Class41 ( obj_6a2101c1_da8f_47d2_bb9d_ef0813e1dc3e o )  ) ) ( type_f12efe30_d001_48e7_a418_da9e444ebc8b_Class51 ( obj_6a2101c1_da8f_47d2_bb9d_ef0813e1dc3e o )  ) )):named c14))
(assert (! (exists ((o Int)) (and ( type_f12efe30_d001_48e7_a418_da9e444ebc8b_Class22 ( obj_6a2101c1_da8f_47d2_bb9d_ef0813e1dc3e o )  )  ( type_f12efe30_d001_48e7_a418_da9e444ebc8b_Class39 ( obj_6a2101c1_da8f_47d2_bb9d_ef0813e1dc3e o )  ) )):named c15))
(assert (! (exists ((o Int)) (and (and (and (and ( type_f12efe30_d001_48e7_a418_da9e444ebc8b_Class23 ( obj_6a2101c1_da8f_47d2_bb9d_ef0813e1dc3e o )  )  ( type_f12efe30_d001_48e7_a418_da9e444ebc8b_Class25 ( obj_6a2101c1_da8f_47d2_bb9d_ef0813e1dc3e o )  ) ) ( type_f12efe30_d001_48e7_a418_da9e444ebc8b_Class24 ( obj_6a2101c1_da8f_47d2_bb9d_ef0813e1dc3e o )  ) ) ( type_f12efe30_d001_48e7_a418_da9e444ebc8b_Class39 ( obj_6a2101c1_da8f_47d2_bb9d_ef0813e1dc3e o )  ) ) ( type_f12efe30_d001_48e7_a418_da9e444ebc8b_Class5 ( obj_6a2101c1_da8f_47d2_bb9d_ef0813e1dc3e o )  ) )):named c16))
(assert (! (exists ((o Int)) (and (and ( type_f12efe30_d001_48e7_a418_da9e444ebc8b_Class24 ( obj_6a2101c1_da8f_47d2_bb9d_ef0813e1dc3e o )  )  ( type_f12efe30_d001_48e7_a418_da9e444ebc8b_Class25 ( obj_6a2101c1_da8f_47d2_bb9d_ef0813e1dc3e o )  ) ) ( type_f12efe30_d001_48e7_a418_da9e444ebc8b_Class39 ( obj_6a2101c1_da8f_47d2_bb9d_ef0813e1dc3e o )  ) )):named c17))
(assert (! (exists ((o Int)) (and ( type_f12efe30_d001_48e7_a418_da9e444ebc8b_Class25 ( obj_6a2101c1_da8f_47d2_bb9d_ef0813e1dc3e o )  )  ( type_f12efe30_d001_48e7_a418_da9e444ebc8b_Class39 ( obj_6a2101c1_da8f_47d2_bb9d_ef0813e1dc3e o )  ) )):named c18))
(assert (! (exists ((o Int)) ( type_f12efe30_d001_48e7_a418_da9e444ebc8b_Class26 ( obj_6a2101c1_da8f_47d2_bb9d_ef0813e1dc3e o )  ) ):named c19))
(assert (! (exists ((o Int)) ( type_f12efe30_d001_48e7_a418_da9e444ebc8b_Class27 ( obj_6a2101c1_da8f_47d2_bb9d_ef0813e1dc3e o )  ) ):named c20))
(assert (! (exists ((o Int)) (and (and (and (and (and (and (and ( type_f12efe30_d001_48e7_a418_da9e444ebc8b_Class28 ( obj_6a2101c1_da8f_47d2_bb9d_ef0813e1dc3e o )  )  ( type_f12efe30_d001_48e7_a418_da9e444ebc8b_Class45 ( obj_6a2101c1_da8f_47d2_bb9d_ef0813e1dc3e o )  ) ) ( type_f12efe30_d001_48e7_a418_da9e444ebc8b_Class12 ( obj_6a2101c1_da8f_47d2_bb9d_ef0813e1dc3e o )  ) ) ( type_f12efe30_d001_48e7_a418_da9e444ebc8b_Class33 ( obj_6a2101c1_da8f_47d2_bb9d_ef0813e1dc3e o )  ) ) ( type_f12efe30_d001_48e7_a418_da9e444ebc8b_Class22 ( obj_6a2101c1_da8f_47d2_bb9d_ef0813e1dc3e o )  ) ) ( type_f12efe30_d001_48e7_a418_da9e444ebc8b_Class29 ( obj_6a2101c1_da8f_47d2_bb9d_ef0813e1dc3e o )  ) ) ( type_f12efe30_d001_48e7_a418_da9e444ebc8b_Class39 ( obj_6a2101c1_da8f_47d2_bb9d_ef0813e1dc3e o )  ) ) ( type_f12efe30_d001_48e7_a418_da9e444ebc8b_Class41 ( obj_6a2101c1_da8f_47d2_bb9d_ef0813e1dc3e o )  ) )):named c21))
(assert (! (exists ((o Int)) (and (and (and (and (and (and ( type_f12efe30_d001_48e7_a418_da9e444ebc8b_Class29 ( obj_6a2101c1_da8f_47d2_bb9d_ef0813e1dc3e o )  )  ( type_f12efe30_d001_48e7_a418_da9e444ebc8b_Class45 ( obj_6a2101c1_da8f_47d2_bb9d_ef0813e1dc3e o )  ) ) ( type_f12efe30_d001_48e7_a418_da9e444ebc8b_Class12 ( obj_6a2101c1_da8f_47d2_bb9d_ef0813e1dc3e o )  ) ) ( type_f12efe30_d001_48e7_a418_da9e444ebc8b_Class33 ( obj_6a2101c1_da8f_47d2_bb9d_ef0813e1dc3e o )  ) ) ( type_f12efe30_d001_48e7_a418_da9e444ebc8b_Class22 ( obj_6a2101c1_da8f_47d2_bb9d_ef0813e1dc3e o )  ) ) ( type_f12efe30_d001_48e7_a418_da9e444ebc8b_Class39 ( obj_6a2101c1_da8f_47d2_bb9d_ef0813e1dc3e o )  ) ) ( type_f12efe30_d001_48e7_a418_da9e444ebc8b_Class41 ( obj_6a2101c1_da8f_47d2_bb9d_ef0813e1dc3e o )  ) )):named c22))
(assert (! (exists ((o Int)) (and (and (and ( type_f12efe30_d001_48e7_a418_da9e444ebc8b_Class3 ( obj_6a2101c1_da8f_47d2_bb9d_ef0813e1dc3e o )  )  ( type_f12efe30_d001_48e7_a418_da9e444ebc8b_Class25 ( obj_6a2101c1_da8f_47d2_bb9d_ef0813e1dc3e o )  ) ) ( type_f12efe30_d001_48e7_a418_da9e444ebc8b_Class24 ( obj_6a2101c1_da8f_47d2_bb9d_ef0813e1dc3e o )  ) ) ( type_f12efe30_d001_48e7_a418_da9e444ebc8b_Class39 ( obj_6a2101c1_da8f_47d2_bb9d_ef0813e1dc3e o )  ) )):named c23))
(assert (! (exists ((o Int)) (and ( type_f12efe30_d001_48e7_a418_da9e444ebc8b_Class30 ( obj_6a2101c1_da8f_47d2_bb9d_ef0813e1dc3e o )  )  ( type_f12efe30_d001_48e7_a418_da9e444ebc8b_Class39 ( obj_6a2101c1_da8f_47d2_bb9d_ef0813e1dc3e o )  ) )):named c24))
(assert (! (exists ((o Int)) (and (and (and (and (and ( type_f12efe30_d001_48e7_a418_da9e444ebc8b_Class31 ( obj_6a2101c1_da8f_47d2_bb9d_ef0813e1dc3e o )  )  ( type_f12efe30_d001_48e7_a418_da9e444ebc8b_Class45 ( obj_6a2101c1_da8f_47d2_bb9d_ef0813e1dc3e o )  ) ) ( type_f12efe30_d001_48e7_a418_da9e444ebc8b_Class12 ( obj_6a2101c1_da8f_47d2_bb9d_ef0813e1dc3e o )  ) ) ( type_f12efe30_d001_48e7_a418_da9e444ebc8b_Class33 ( obj_6a2101c1_da8f_47d2_bb9d_ef0813e1dc3e o )  ) ) ( type_f12efe30_d001_48e7_a418_da9e444ebc8b_Class22 ( obj_6a2101c1_da8f_47d2_bb9d_ef0813e1dc3e o )  ) ) ( type_f12efe30_d001_48e7_a418_da9e444ebc8b_Class39 ( obj_6a2101c1_da8f_47d2_bb9d_ef0813e1dc3e o )  ) )):named c25))
(assert (! (exists ((o Int)) ( type_f12efe30_d001_48e7_a418_da9e444ebc8b_Class32 ( obj_6a2101c1_da8f_47d2_bb9d_ef0813e1dc3e o )  ) ):named c26))
(assert (! (exists ((o Int)) (and (and ( type_f12efe30_d001_48e7_a418_da9e444ebc8b_Class33 ( obj_6a2101c1_da8f_47d2_bb9d_ef0813e1dc3e o )  )  ( type_f12efe30_d001_48e7_a418_da9e444ebc8b_Class22 ( obj_6a2101c1_da8f_47d2_bb9d_ef0813e1dc3e o )  ) ) ( type_f12efe30_d001_48e7_a418_da9e444ebc8b_Class39 ( obj_6a2101c1_da8f_47d2_bb9d_ef0813e1dc3e o )  ) )):named c27))
(assert (! (exists ((o Int)) (and (and (and ( type_f12efe30_d001_48e7_a418_da9e444ebc8b_Class34 ( obj_6a2101c1_da8f_47d2_bb9d_ef0813e1dc3e o )  )  ( type_f12efe30_d001_48e7_a418_da9e444ebc8b_Class25 ( obj_6a2101c1_da8f_47d2_bb9d_ef0813e1dc3e o )  ) ) ( type_f12efe30_d001_48e7_a418_da9e444ebc8b_Class24 ( obj_6a2101c1_da8f_47d2_bb9d_ef0813e1dc3e o )  ) ) ( type_f12efe30_d001_48e7_a418_da9e444ebc8b_Class39 ( obj_6a2101c1_da8f_47d2_bb9d_ef0813e1dc3e o )  ) )):named c28))
(assert (! (exists ((o Int)) (and (and ( type_f12efe30_d001_48e7_a418_da9e444ebc8b_Class35 ( obj_6a2101c1_da8f_47d2_bb9d_ef0813e1dc3e o )  )  ( type_f12efe30_d001_48e7_a418_da9e444ebc8b_Class39 ( obj_6a2101c1_da8f_47d2_bb9d_ef0813e1dc3e o )  ) ) ( type_f12efe30_d001_48e7_a418_da9e444ebc8b_Class30 ( obj_6a2101c1_da8f_47d2_bb9d_ef0813e1dc3e o )  ) )):named c29))
(assert (! (exists ((o Int)) ( type_f12efe30_d001_48e7_a418_da9e444ebc8b_Class36 ( obj_6a2101c1_da8f_47d2_bb9d_ef0813e1dc3e o )  ) ):named c30))
(assert (! (exists ((o Int)) ( type_f12efe30_d001_48e7_a418_da9e444ebc8b_Class37 ( obj_6a2101c1_da8f_47d2_bb9d_ef0813e1dc3e o )  ) ):named c31))
(assert (! (exists ((o Int)) ( type_f12efe30_d001_48e7_a418_da9e444ebc8b_Class38 ( obj_6a2101c1_da8f_47d2_bb9d_ef0813e1dc3e o )  ) ):named c32))
(assert (! (exists ((o Int)) ( type_f12efe30_d001_48e7_a418_da9e444ebc8b_Class39 ( obj_6a2101c1_da8f_47d2_bb9d_ef0813e1dc3e o )  ) ):named c33))
(assert (! (exists ((o Int)) ( type_f12efe30_d001_48e7_a418_da9e444ebc8b_Class4 ( obj_6a2101c1_da8f_47d2_bb9d_ef0813e1dc3e o )  ) ):named c34))
(assert (! (exists ((o Int)) (and (and (and (and (and (and (and (and (and ( type_f12efe30_d001_48e7_a418_da9e444ebc8b_Class40 ( obj_6a2101c1_da8f_47d2_bb9d_ef0813e1dc3e o )  )  ( type_f12efe30_d001_48e7_a418_da9e444ebc8b_Class45 ( obj_6a2101c1_da8f_47d2_bb9d_ef0813e1dc3e o )  ) ) ( type_f12efe30_d001_48e7_a418_da9e444ebc8b_Class12 ( obj_6a2101c1_da8f_47d2_bb9d_ef0813e1dc3e o )  ) ) ( type_f12efe30_d001_48e7_a418_da9e444ebc8b_Class55 ( obj_6a2101c1_da8f_47d2_bb9d_ef0813e1dc3e o )  ) ) ( type_f12efe30_d001_48e7_a418_da9e444ebc8b_Class33 ( obj_6a2101c1_da8f_47d2_bb9d_ef0813e1dc3e o )  ) ) ( type_f12efe30_d001_48e7_a418_da9e444ebc8b_Class22 ( obj_6a2101c1_da8f_47d2_bb9d_ef0813e1dc3e o )  ) ) ( type_f12efe30_d001_48e7_a418_da9e444ebc8b_Class29 ( obj_6a2101c1_da8f_47d2_bb9d_ef0813e1dc3e o )  ) ) ( type_f12efe30_d001_48e7_a418_da9e444ebc8b_Class39 ( obj_6a2101c1_da8f_47d2_bb9d_ef0813e1dc3e o )  ) ) ( type_f12efe30_d001_48e7_a418_da9e444ebc8b_Class50 ( obj_6a2101c1_da8f_47d2_bb9d_ef0813e1dc3e o )  ) ) ( type_f12efe30_d001_48e7_a418_da9e444ebc8b_Class41 ( obj_6a2101c1_da8f_47d2_bb9d_ef0813e1dc3e o )  ) )):named c35))
(assert (! (exists ((o Int)) (and (and (and (and (and ( type_f12efe30_d001_48e7_a418_da9e444ebc8b_Class41 ( obj_6a2101c1_da8f_47d2_bb9d_ef0813e1dc3e o )  )  ( type_f12efe30_d001_48e7_a418_da9e444ebc8b_Class45 ( obj_6a2101c1_da8f_47d2_bb9d_ef0813e1dc3e o )  ) ) ( type_f12efe30_d001_48e7_a418_da9e444ebc8b_Class12 ( obj_6a2101c1_da8f_47d2_bb9d_ef0813e1dc3e o )  ) ) ( type_f12efe30_d001_48e7_a418_da9e444ebc8b_Class33 ( obj_6a2101c1_da8f_47d2_bb9d_ef0813e1dc3e o )  ) ) ( type_f12efe30_d001_48e7_a418_da9e444ebc8b_Class22 ( obj_6a2101c1_da8f_47d2_bb9d_ef0813e1dc3e o )  ) ) ( type_f12efe30_d001_48e7_a418_da9e444ebc8b_Class39 ( obj_6a2101c1_da8f_47d2_bb9d_ef0813e1dc3e o )  ) )):named c36))
(assert (! (exists ((o Int)) (and ( type_f12efe30_d001_48e7_a418_da9e444ebc8b_Class42 ( obj_6a2101c1_da8f_47d2_bb9d_ef0813e1dc3e o )  )  ( type_f12efe30_d001_48e7_a418_da9e444ebc8b_Class39 ( obj_6a2101c1_da8f_47d2_bb9d_ef0813e1dc3e o )  ) )):named c37))
(assert (! (exists ((o Int)) ( type_f12efe30_d001_48e7_a418_da9e444ebc8b_Class43 ( obj_6a2101c1_da8f_47d2_bb9d_ef0813e1dc3e o )  ) ):named c38))
(assert (! (exists ((o Int)) (and (and (and (and (and (and (and ( type_f12efe30_d001_48e7_a418_da9e444ebc8b_Class44 ( obj_6a2101c1_da8f_47d2_bb9d_ef0813e1dc3e o )  )  ( type_f12efe30_d001_48e7_a418_da9e444ebc8b_Class45 ( obj_6a2101c1_da8f_47d2_bb9d_ef0813e1dc3e o )  ) ) ( type_f12efe30_d001_48e7_a418_da9e444ebc8b_Class12 ( obj_6a2101c1_da8f_47d2_bb9d_ef0813e1dc3e o )  ) ) ( type_f12efe30_d001_48e7_a418_da9e444ebc8b_Class33 ( obj_6a2101c1_da8f_47d2_bb9d_ef0813e1dc3e o )  ) ) ( type_f12efe30_d001_48e7_a418_da9e444ebc8b_Class22 ( obj_6a2101c1_da8f_47d2_bb9d_ef0813e1dc3e o )  ) ) ( type_f12efe30_d001_48e7_a418_da9e444ebc8b_Class29 ( obj_6a2101c1_da8f_47d2_bb9d_ef0813e1dc3e o )  ) ) ( type_f12efe30_d001_48e7_a418_da9e444ebc8b_Class39 ( obj_6a2101c1_da8f_47d2_bb9d_ef0813e1dc3e o )  ) ) ( type_f12efe30_d001_48e7_a418_da9e444ebc8b_Class41 ( obj_6a2101c1_da8f_47d2_bb9d_ef0813e1dc3e o )  ) )):named c39))
(assert (! (exists ((o Int)) (and (and (and (and ( type_f12efe30_d001_48e7_a418_da9e444ebc8b_Class45 ( obj_6a2101c1_da8f_47d2_bb9d_ef0813e1dc3e o )  )  ( type_f12efe30_d001_48e7_a418_da9e444ebc8b_Class12 ( obj_6a2101c1_da8f_47d2_bb9d_ef0813e1dc3e o )  ) ) ( type_f12efe30_d001_48e7_a418_da9e444ebc8b_Class33 ( obj_6a2101c1_da8f_47d2_bb9d_ef0813e1dc3e o )  ) ) ( type_f12efe30_d001_48e7_a418_da9e444ebc8b_Class22 ( obj_6a2101c1_da8f_47d2_bb9d_ef0813e1dc3e o )  ) ) ( type_f12efe30_d001_48e7_a418_da9e444ebc8b_Class39 ( obj_6a2101c1_da8f_47d2_bb9d_ef0813e1dc3e o )  ) )):named c40))
(assert (! (exists ((o Int)) (and (and ( type_f12efe30_d001_48e7_a418_da9e444ebc8b_Class46 ( obj_6a2101c1_da8f_47d2_bb9d_ef0813e1dc3e o )  )  ( type_f12efe30_d001_48e7_a418_da9e444ebc8b_Class39 ( obj_6a2101c1_da8f_47d2_bb9d_ef0813e1dc3e o )  ) ) ( type_f12efe30_d001_48e7_a418_da9e444ebc8b_Class5 ( obj_6a2101c1_da8f_47d2_bb9d_ef0813e1dc3e o )  ) )):named c41))
(assert (! (exists ((o Int)) ( type_f12efe30_d001_48e7_a418_da9e444ebc8b_Class47 ( obj_6a2101c1_da8f_47d2_bb9d_ef0813e1dc3e o )  ) ):named c42))
(assert (! (exists ((o Int)) (and (and (and (and (and (and (and (and (and ( type_f12efe30_d001_48e7_a418_da9e444ebc8b_Class48 ( obj_6a2101c1_da8f_47d2_bb9d_ef0813e1dc3e o )  )  ( type_f12efe30_d001_48e7_a418_da9e444ebc8b_Class45 ( obj_6a2101c1_da8f_47d2_bb9d_ef0813e1dc3e o )  ) ) ( type_f12efe30_d001_48e7_a418_da9e444ebc8b_Class12 ( obj_6a2101c1_da8f_47d2_bb9d_ef0813e1dc3e o )  ) ) ( type_f12efe30_d001_48e7_a418_da9e444ebc8b_Class55 ( obj_6a2101c1_da8f_47d2_bb9d_ef0813e1dc3e o )  ) ) ( type_f12efe30_d001_48e7_a418_da9e444ebc8b_Class33 ( obj_6a2101c1_da8f_47d2_bb9d_ef0813e1dc3e o )  ) ) ( type_f12efe30_d001_48e7_a418_da9e444ebc8b_Class22 ( obj_6a2101c1_da8f_47d2_bb9d_ef0813e1dc3e o )  ) ) ( type_f12efe30_d001_48e7_a418_da9e444ebc8b_Class29 ( obj_6a2101c1_da8f_47d2_bb9d_ef0813e1dc3e o )  ) ) ( type_f12efe30_d001_48e7_a418_da9e444ebc8b_Class39 ( obj_6a2101c1_da8f_47d2_bb9d_ef0813e1dc3e o )  ) ) ( type_f12efe30_d001_48e7_a418_da9e444ebc8b_Class50 ( obj_6a2101c1_da8f_47d2_bb9d_ef0813e1dc3e o )  ) ) ( type_f12efe30_d001_48e7_a418_da9e444ebc8b_Class41 ( obj_6a2101c1_da8f_47d2_bb9d_ef0813e1dc3e o )  ) )):named c43))
(assert (! (exists ((o Int)) (and (and (and (and (and (and (and (and (and ( type_f12efe30_d001_48e7_a418_da9e444ebc8b_Class49 ( obj_6a2101c1_da8f_47d2_bb9d_ef0813e1dc3e o )  )  ( type_f12efe30_d001_48e7_a418_da9e444ebc8b_Class45 ( obj_6a2101c1_da8f_47d2_bb9d_ef0813e1dc3e o )  ) ) ( type_f12efe30_d001_48e7_a418_da9e444ebc8b_Class12 ( obj_6a2101c1_da8f_47d2_bb9d_ef0813e1dc3e o )  ) ) ( type_f12efe30_d001_48e7_a418_da9e444ebc8b_Class55 ( obj_6a2101c1_da8f_47d2_bb9d_ef0813e1dc3e o )  ) ) ( type_f12efe30_d001_48e7_a418_da9e444ebc8b_Class33 ( obj_6a2101c1_da8f_47d2_bb9d_ef0813e1dc3e o )  ) ) ( type_f12efe30_d001_48e7_a418_da9e444ebc8b_Class22 ( obj_6a2101c1_da8f_47d2_bb9d_ef0813e1dc3e o )  ) ) ( type_f12efe30_d001_48e7_a418_da9e444ebc8b_Class29 ( obj_6a2101c1_da8f_47d2_bb9d_ef0813e1dc3e o )  ) ) ( type_f12efe30_d001_48e7_a418_da9e444ebc8b_Class39 ( obj_6a2101c1_da8f_47d2_bb9d_ef0813e1dc3e o )  ) ) ( type_f12efe30_d001_48e7_a418_da9e444ebc8b_Class50 ( obj_6a2101c1_da8f_47d2_bb9d_ef0813e1dc3e o )  ) ) ( type_f12efe30_d001_48e7_a418_da9e444ebc8b_Class41 ( obj_6a2101c1_da8f_47d2_bb9d_ef0813e1dc3e o )  ) )):named c44))
(assert (! (exists ((o Int)) (and ( type_f12efe30_d001_48e7_a418_da9e444ebc8b_Class5 ( obj_6a2101c1_da8f_47d2_bb9d_ef0813e1dc3e o )  )  ( type_f12efe30_d001_48e7_a418_da9e444ebc8b_Class39 ( obj_6a2101c1_da8f_47d2_bb9d_ef0813e1dc3e o )  ) )):named c45))
(assert (! (exists ((o Int)) (and (and (and (and (and (and (and (and ( type_f12efe30_d001_48e7_a418_da9e444ebc8b_Class50 ( obj_6a2101c1_da8f_47d2_bb9d_ef0813e1dc3e o )  )  ( type_f12efe30_d001_48e7_a418_da9e444ebc8b_Class45 ( obj_6a2101c1_da8f_47d2_bb9d_ef0813e1dc3e o )  ) ) ( type_f12efe30_d001_48e7_a418_da9e444ebc8b_Class12 ( obj_6a2101c1_da8f_47d2_bb9d_ef0813e1dc3e o )  ) ) ( type_f12efe30_d001_48e7_a418_da9e444ebc8b_Class55 ( obj_6a2101c1_da8f_47d2_bb9d_ef0813e1dc3e o )  ) ) ( type_f12efe30_d001_48e7_a418_da9e444ebc8b_Class33 ( obj_6a2101c1_da8f_47d2_bb9d_ef0813e1dc3e o )  ) ) ( type_f12efe30_d001_48e7_a418_da9e444ebc8b_Class22 ( obj_6a2101c1_da8f_47d2_bb9d_ef0813e1dc3e o )  ) ) ( type_f12efe30_d001_48e7_a418_da9e444ebc8b_Class29 ( obj_6a2101c1_da8f_47d2_bb9d_ef0813e1dc3e o )  ) ) ( type_f12efe30_d001_48e7_a418_da9e444ebc8b_Class39 ( obj_6a2101c1_da8f_47d2_bb9d_ef0813e1dc3e o )  ) ) ( type_f12efe30_d001_48e7_a418_da9e444ebc8b_Class41 ( obj_6a2101c1_da8f_47d2_bb9d_ef0813e1dc3e o )  ) )):named c46))
(assert (! (exists ((o Int)) (and (and (and (and (and (and ( type_f12efe30_d001_48e7_a418_da9e444ebc8b_Class51 ( obj_6a2101c1_da8f_47d2_bb9d_ef0813e1dc3e o )  )  ( type_f12efe30_d001_48e7_a418_da9e444ebc8b_Class45 ( obj_6a2101c1_da8f_47d2_bb9d_ef0813e1dc3e o )  ) ) ( type_f12efe30_d001_48e7_a418_da9e444ebc8b_Class12 ( obj_6a2101c1_da8f_47d2_bb9d_ef0813e1dc3e o )  ) ) ( type_f12efe30_d001_48e7_a418_da9e444ebc8b_Class33 ( obj_6a2101c1_da8f_47d2_bb9d_ef0813e1dc3e o )  ) ) ( type_f12efe30_d001_48e7_a418_da9e444ebc8b_Class22 ( obj_6a2101c1_da8f_47d2_bb9d_ef0813e1dc3e o )  ) ) ( type_f12efe30_d001_48e7_a418_da9e444ebc8b_Class16 ( obj_6a2101c1_da8f_47d2_bb9d_ef0813e1dc3e o )  ) ) ( type_f12efe30_d001_48e7_a418_da9e444ebc8b_Class39 ( obj_6a2101c1_da8f_47d2_bb9d_ef0813e1dc3e o )  ) )):named c47))
(assert (! (exists ((o Int)) (and (and (and (and (and ( type_f12efe30_d001_48e7_a418_da9e444ebc8b_Class52 ( obj_6a2101c1_da8f_47d2_bb9d_ef0813e1dc3e o )  )  ( type_f12efe30_d001_48e7_a418_da9e444ebc8b_Class45 ( obj_6a2101c1_da8f_47d2_bb9d_ef0813e1dc3e o )  ) ) ( type_f12efe30_d001_48e7_a418_da9e444ebc8b_Class12 ( obj_6a2101c1_da8f_47d2_bb9d_ef0813e1dc3e o )  ) ) ( type_f12efe30_d001_48e7_a418_da9e444ebc8b_Class33 ( obj_6a2101c1_da8f_47d2_bb9d_ef0813e1dc3e o )  ) ) ( type_f12efe30_d001_48e7_a418_da9e444ebc8b_Class22 ( obj_6a2101c1_da8f_47d2_bb9d_ef0813e1dc3e o )  ) ) ( type_f12efe30_d001_48e7_a418_da9e444ebc8b_Class39 ( obj_6a2101c1_da8f_47d2_bb9d_ef0813e1dc3e o )  ) )):named c48))
(assert (! (exists ((o Int)) ( type_f12efe30_d001_48e7_a418_da9e444ebc8b_Class53 ( obj_6a2101c1_da8f_47d2_bb9d_ef0813e1dc3e o )  ) ):named c49))
(assert (! (exists ((o Int)) ( type_f12efe30_d001_48e7_a418_da9e444ebc8b_Class54 ( obj_6a2101c1_da8f_47d2_bb9d_ef0813e1dc3e o )  ) ):named c50))
(assert (! (exists ((o Int)) (and (and (and (and (and (and (and ( type_f12efe30_d001_48e7_a418_da9e444ebc8b_Class55 ( obj_6a2101c1_da8f_47d2_bb9d_ef0813e1dc3e o )  )  ( type_f12efe30_d001_48e7_a418_da9e444ebc8b_Class45 ( obj_6a2101c1_da8f_47d2_bb9d_ef0813e1dc3e o )  ) ) ( type_f12efe30_d001_48e7_a418_da9e444ebc8b_Class12 ( obj_6a2101c1_da8f_47d2_bb9d_ef0813e1dc3e o )  ) ) ( type_f12efe30_d001_48e7_a418_da9e444ebc8b_Class33 ( obj_6a2101c1_da8f_47d2_bb9d_ef0813e1dc3e o )  ) ) ( type_f12efe30_d001_48e7_a418_da9e444ebc8b_Class22 ( obj_6a2101c1_da8f_47d2_bb9d_ef0813e1dc3e o )  ) ) ( type_f12efe30_d001_48e7_a418_da9e444ebc8b_Class29 ( obj_6a2101c1_da8f_47d2_bb9d_ef0813e1dc3e o )  ) ) ( type_f12efe30_d001_48e7_a418_da9e444ebc8b_Class39 ( obj_6a2101c1_da8f_47d2_bb9d_ef0813e1dc3e o )  ) ) ( type_f12efe30_d001_48e7_a418_da9e444ebc8b_Class41 ( obj_6a2101c1_da8f_47d2_bb9d_ef0813e1dc3e o )  ) )):named c51))
(assert (! (exists ((o Int)) ( type_f12efe30_d001_48e7_a418_da9e444ebc8b_Class6 ( obj_6a2101c1_da8f_47d2_bb9d_ef0813e1dc3e o )  ) ):named c52))
(assert (! (exists ((o Int)) (and (and (and (and (and (and (and (and (and ( type_f12efe30_d001_48e7_a418_da9e444ebc8b_Class7 ( obj_6a2101c1_da8f_47d2_bb9d_ef0813e1dc3e o )  )  ( type_f12efe30_d001_48e7_a418_da9e444ebc8b_Class45 ( obj_6a2101c1_da8f_47d2_bb9d_ef0813e1dc3e o )  ) ) ( type_f12efe30_d001_48e7_a418_da9e444ebc8b_Class12 ( obj_6a2101c1_da8f_47d2_bb9d_ef0813e1dc3e o )  ) ) ( type_f12efe30_d001_48e7_a418_da9e444ebc8b_Class55 ( obj_6a2101c1_da8f_47d2_bb9d_ef0813e1dc3e o )  ) ) ( type_f12efe30_d001_48e7_a418_da9e444ebc8b_Class33 ( obj_6a2101c1_da8f_47d2_bb9d_ef0813e1dc3e o )  ) ) ( type_f12efe30_d001_48e7_a418_da9e444ebc8b_Class22 ( obj_6a2101c1_da8f_47d2_bb9d_ef0813e1dc3e o )  ) ) ( type_f12efe30_d001_48e7_a418_da9e444ebc8b_Class29 ( obj_6a2101c1_da8f_47d2_bb9d_ef0813e1dc3e o )  ) ) ( type_f12efe30_d001_48e7_a418_da9e444ebc8b_Class39 ( obj_6a2101c1_da8f_47d2_bb9d_ef0813e1dc3e o )  ) ) ( type_f12efe30_d001_48e7_a418_da9e444ebc8b_Class50 ( obj_6a2101c1_da8f_47d2_bb9d_ef0813e1dc3e o )  ) ) ( type_f12efe30_d001_48e7_a418_da9e444ebc8b_Class41 ( obj_6a2101c1_da8f_47d2_bb9d_ef0813e1dc3e o )  ) )):named c53))
(assert (! (exists ((o Int)) (and ( type_f12efe30_d001_48e7_a418_da9e444ebc8b_Class8 ( obj_6a2101c1_da8f_47d2_bb9d_ef0813e1dc3e o )  )  ( type_f12efe30_d001_48e7_a418_da9e444ebc8b_Class39 ( obj_6a2101c1_da8f_47d2_bb9d_ef0813e1dc3e o )  ) )):named c54))
(assert (! (exists ((o Int)) ( type_f12efe30_d001_48e7_a418_da9e444ebc8b_Class9 ( obj_6a2101c1_da8f_47d2_bb9d_ef0813e1dc3e o )  ) ):named c55))

 ;end of formula 